Gurobi Optimizer version 9.1.2 build v9.1.2rc0 (linux64)
Thread count: 36 physical cores, 72 logical processors, using up to 32 threads
Optimize a model with 12 rows, 57 columns and 590 nonzeros
Model fingerprint: 0xf32eec78
Model has 47 quadratic constraints
Coefficient statistics:
  Matrix range     [2e-05, 3e+00]
  QMatrix range    [1e+00, 1e+00]
  QLMatrix range   [1e+00, 1e+00]
  Objective range  [8e-03, 7e-01]
  Bounds range     [1e+00, 1e+00]
  RHS range        [1e+00, 1e+00]
Presolve removed 9 rows and 0 columns

Continuous model is non-convex -- solving as a MIP.

Presolve removed 9 rows and 0 columns
Presolve time: 0.00s
Presolved: 189 rows, 57 columns, 443 nonzeros
Presolved model has 47 bilinear constraint(s)
Variable types: 57 continuous, 0 integer (0 binary)

Root relaxation: objective -1.743721e+00, 44 iterations, 0.00 seconds

    Nodes    |    Current Node    |     Objective Bounds      |     Work
 Expl Unexpl |  Obj  Depth IntInf | Incumbent    BestBd   Gap | It/Node Time

     0     0   -1.74372    0   38          -   -1.74372      -     -    0s
H    0     0                       0.6147548   -1.74372   384%     -    0s
     0     0   -1.64739    0    1    0.61475   -1.64739   368%     -    0s
H    0     0                      -1.6450460   -1.64739  0.14%     -    0s
     0     0     cutoff    0        -1.64505   -1.64505  0.00%     -    0s

Cutting planes:
  RLT: 25
  BQP: 3

Explored 1 nodes (76 simplex iterations) in 0.01 seconds
Thread count was 32 (of 72 available processors)

Solution count 2: -1.64505 0.614755 
No other solutions better than -1.64505

Optimal solution found (tolerance 1.00e-04)
Best objective -1.645045978473e+00, best bound -1.645045978473e+00, gap 0.0000%

User-callback calls 78, time in user-callback 0.00 sec
Gurobi Optimizer version 9.1.2 build v9.1.2rc0 (linux64)
Thread count: 36 physical cores, 72 logical processors, using up to 32 threads
Optimize a model with 60 rows, 312 columns and 16100 nonzeros
Model fingerprint: 0xff693233
Model has 262 quadratic constraints
Coefficient statistics:
  Matrix range     [4e-07, 7e+00]
  QMatrix range    [1e+00, 1e+00]
  QLMatrix range   [1e+00, 1e+00]
  Objective range  [5e-03, 1e+00]
  Bounds range     [1e+00, 1e+00]
  RHS range        [1e+00, 1e+00]
Presolve removed 16 rows and 0 columns

Continuous model is non-convex -- solving as a MIP.

Presolve removed 16 rows and 0 columns
Presolve time: 0.01s
Presolved: 1080 rows, 312 columns, 13135 nonzeros
Presolved model has 262 bilinear constraint(s)
Variable types: 312 continuous, 0 integer (0 binary)

Root relaxation: objective -2.945361e+01, 293 iterations, 0.01 seconds

    Nodes    |    Current Node    |     Objective Bounds      |     Work
 Expl Unexpl |  Obj  Depth IntInf | Incumbent    BestBd   Gap | It/Node Time

     0     0  -29.45361    0   89          -  -29.45361      -     -    0s
     0     0  -28.20200    0   64          -  -28.20200      -     -    0s
     0     0  -28.16041    0   61          -  -28.16041      -     -    0s
     0     0  -28.13408    0   64          -  -28.13408      -     -    0s
     0     0  -28.13380    0   64          -  -28.13380      -     -    0s
     0     0  -28.11304    0   64          -  -28.11304      -     -    0s
     0     0  -28.10516    0   64          -  -28.10516      -     -    0s
     0     0  -28.10478    0   64          -  -28.10478      -     -    0s
     0     0  -28.10473    0   73          -  -28.10473      -     -    0s
     0     0  -28.10419    0   64          -  -28.10419      -     -    0s
     0     2  -28.10419    0   64          -  -28.10419      -     -    0s
* 2597  2765              74     -24.8510906  -27.37310  10.1%  34.1    1s
* 2605  1989              59     -26.6168655  -27.37310  2.84%  34.0    1s
* 2614  1989              55     -26.6759530  -27.37310  2.61%  34.0    1s
* 2615  1989              55     -26.6759558  -27.37310  2.61%  33.9    1s
* 3526  2002              76     -26.7604161  -27.31480  2.07%  33.8    1s
* 8995  1111              72     -26.8485090  -27.31480  1.74%  36.3    4s
 11074  1265  -26.96761   26   25  -26.84851  -27.14984  1.12%  34.9    5s
*12408  1611              74     -26.8500889  -27.03134  0.68%  33.6    5s
*12414  1611              77     -26.8502249  -27.03134  0.67%  33.6    5s
*12416  1611              78     -26.8502380  -27.03134  0.67%  33.6    5s
*13322  2026              72     -26.8628539  -26.97065  0.40%  32.3    5s
*13531  2026              73     -26.8646807  -26.97065  0.39%  32.1    5s
*14326  1834              67     -26.8739048  -26.94888  0.28%  31.1    5s
*15393  1660              64     -26.8764257  -26.91277  0.14%  30.0    5s
*15535  1660              61     -26.8768565  -26.91277  0.13%  29.9    5s
*16984  1052              65     -26.8768603  -26.89713  0.08%  28.3    5s
*16985  1052              64     -26.8768717  -26.89713  0.08%  28.3    5s
*18187   947              67     -26.8769079  -26.89307  0.06%  26.9    6s
*18188   947              67     -26.8769082  -26.89307  0.06%  26.9    6s
*18241   947              64     -26.8781902  -26.89307  0.06%  26.8    6s
*18313   511              69     -26.8782007  -26.89285  0.05%  26.8    6s
*18852   511              68     -26.8782125  -26.88349  0.02%  26.1    6s
*18854   511              67     -26.8782233  -26.88349  0.02%  26.1    6s
*18880   511              66     -26.8782244  -26.88321  0.02%  26.1    6s
*19025   511              61     -26.8782643  -26.88316  0.02%  25.9    6s
*19249   452              61     -26.8782730  -26.88316  0.02%  25.7    6s
*19332   452              68     -26.8784024  -26.88316  0.02%  25.6    6s
*19789   452              63     -26.8784034  -26.88096  0.01%  25.1    6s
*19880   452              67     -26.8784185  -26.88096  0.01%  25.0    6s
*20048   452              64     -26.8784419  -26.88096  0.01%  24.8    6s

Explored 20064 nodes (497088 simplex iterations) in 6.30 seconds
Thread count was 32 (of 72 available processors)

Solution count 10: -26.8784 -26.8784 -26.8784 ... -26.8782

Optimal solution found (tolerance 1.00e-04)
Best objective -2.687844190666e+01, best bound -2.688095618789e+01, gap 0.0094%

User-callback calls 41056, time in user-callback 0.01 sec



objective value: -26.878441906661337
objective bound: -26.880956187893833
x_opt: [0.9884168132128646, 1.0, 0.0, 0.3578361958802917, 0.0, 0.0, 1.0, 0.0, 0.0, 0.0, 1.0, 0.0, 1.0, 1.0, 0.125, 1.0, 0.0, 1.0, 0.0, 0.0, 1.0, 0.6973380129846052, 0.0, 0.8303581852899841, 0.0, 0.8217022323387658, 0.0, 1.0, 0.0, 0.0, 1.0, 0.8912758078583363, 0.0, 0.37672152555382704, 1.0, 1.0, 0.06114622323581699, 1.0, 0.0, 0.8042692533613373, 1.0, 0.0, 1.0, 0.0, 0.0, 0.08738722541787751, 0.9253015994047917, 0.0, 1.0, 0.17636652005159062]
GUROBI solution time: 6.2958879470825195




